bench/sll0a/entl/spaguetti-13-e10.tptp.smt2
(set-logic QF_S)
(set-info :source |
A. Rybalchenko and J. A. Navarro Pérez.
[Separation Logic + Superposition Calculus = Heap Theorem Prover]
[PLDI 2011]
http://navarroj.com/research/papers.html#pldi11
|)
(set-info :smt-lib-version 2.0)
(set-info :category "random") 
(set-info :status unknown)
(set-info :version 2014-05-22)

(set-logic QF_NOLL)

(declare-sort Sll_t 0)

(declare-fun f () (Field Sll_t Sll_t))

(define-fun ls ((?in Sll_t) (?out Sll_t)) Space
(tospace (or (= ?in ?out)
(exists ((?u Sll_t))
(and (distinct ?in ?out) (tobool
(ssep (pto ?in (ref f ?u)) (ls ?u ?out)
)))))))

(declare-fun x_emp () Sll_t)
(declare-fun y_emp () Sll_t)
(declare-fun z_emp () Sll_t)
(declare-fun t_emp () Sll_t)
(declare-fun x0 () Sll_t)
(declare-fun x1 () Sll_t)
(declare-fun x2 () Sll_t)
(declare-fun x3 () Sll_t)
(declare-fun x4 () Sll_t)
(declare-fun x5 () Sll_t)
(declare-fun x6 () Sll_t)
(declare-fun x7 () Sll_t)
(declare-fun x8 () Sll_t)
(declare-fun x9 () Sll_t)
(declare-fun x10 () Sll_t)
(declare-fun x11 () Sll_t)
(declare-fun x12 () Sll_t)
(declare-fun x13 () Sll_t)
(declare-fun x14 () Sll_t)
(declare-fun x15 () Sll_t)
(declare-fun x16 () Sll_t)
(declare-fun x17 () Sll_t)
(assert
  (and 
    (= nil nil)
(distinct x11 x13 )
(distinct x2 x8 )
(distinct x2 x4 )
(distinct x8 x11 )
(distinct x8 x10 )
(distinct x1 x5 )
(distinct x4 x8 )
(distinct x4 x9 )
(distinct x5 x11 )
    (tobool  (ssep  (ls x5 x6 ) (ssep  (ls x10 x12 ) (ssep  (ls x10 x3 ) (ssep  (ls x10 x1 ) (ssep  (ls x13 x1 ) (ssep  (ls x12 x3 ) (ssep  (ls x7 x5 )(ssep (pto x_emp (ref f y_emp)) (pto z_emp (ref f t_emp)))))))))))
  )
)
(assert
  (not
    (and (distinct x1 x1 )    (tobool (ssep (pto x_emp (ref f y_emp)) (pto z_emp (ref f t_emp))))
)  ))

(check-sat)
