solvers/asterix/bench/ls/sat/spaguetti-13-e10.tptp
%------------------------------------------------------------------------------
% File     : 
% Domain   : Separation Logic
% Problem  : Randomly generated entailment of the form F -> \bot (n = 13)
% Version  : 
% English  : A randomly generated entailment with n program variables.
%            Negated equalities and list segments are added at random, with
%            specific paramenters so that about half of the generated
%            entailments are valid (or, equivalently, F is unsatisfiable).
%            Normalization and well-formedness axioms should be enough to
%            decide these entailments.

% Refs     : [NV11] Navarro (2011), Separation Logic + Superposition Calculus
% Source   : [NV11]
% Names    :

% Status   : 
% Syntax   : 
% SPC      : 

% Comments :
%------------------------------------------------------------------------------
%====Include axioms for Lists in Separation Logic
include('Axioms/SepLogicLists.ax').

cnf(premise_1,hypothesis,
    ( ~ x11 = x13 )).

cnf(premise_2,hypothesis,
    ( ~ x2 = x8 )).

cnf(premise_3,hypothesis,
    ( ~ x2 = x4 )).

cnf(premise_4,hypothesis,
    ( ~ x8 = x11 )).

cnf(premise_5,hypothesis,
    ( ~ x8 = x10 )).

cnf(premise_6,hypothesis,
    ( ~ x1 = x5 )).

cnf(premise_7,hypothesis,
    ( ~ x4 = x8 )).

cnf(premise_8,hypothesis,
    ( ~ x4 = x9 )).

cnf(premise_9,hypothesis,
    ( ~ x5 = x11 )).

cnf(premise_10,hypothesis,
    ( heap(sep(ls(x5, x6), sep(ls(x10, x12), sep(ls(x10, x3), sep(ls(x10, x1), sep(ls(x13, x1), sep(ls(x12, x3), sep(ls(x7, x5), emp)))))))) )).

cnf(conclusion_1,negated_conjecture,
    ( x1 = x1
    | ~ heap(emp) )).

